p cnf 50 10
x -1 -2 -3 -4 7 -8 11 -12 13 14 -15 -16 19 27 -31 -33 -34 -35 -36 -39 40 -43 -46 47 48 49 0
x 3 5 -6 -8 9 -11 -12 -16 19 20 -22 24 25 -28 -29 -30 -32 -33 -34 35 -36 41 -43 -44 47 -48 50 0
x -2 4 6 15 -16 18 -19 22 -24 26 -28 30 32 34 -42 45 -46 0
x 3 8 9 -10 12 16 -19 21 -22 23 24 -27 -28 -32 33 34 35 37 -40 41 -42 45 48 0
x -1 -2 -3 -4 6 7 8 -9 -10 -13 -15 16 17 -18 -23 24 26 28 -33 -34 -35 -37 -39 -41 42 45 -46 49 50 0
x -1 -3 4 7 8 -10 14 -17 -18 20 -22 -23 -26 27 28 -30 34 -36 -37 39 -43 45 -46 -49 0
x -1 -2 -4 -5 7 11 -12 14 17 18 20 -21 -23 25 28 31 -34 -36 37 -39 -40 41 42 43 -44 -45 -46 -49 50 0
x -1 2 3 -4 5 -6 -8 -9 -11 -13 16 17 -21 22 -23 24 25 -28 -29 31 -32 36 37 -38 42 46 50 0
x -5 -6 -7 9 -10 -11 13 14 20 21 23 25 28 29 31 -32 34 -36 -38 -42 44 45 48 -50 0
x -3 5 6 7 -8 12 14 19 20 25 -26 27 31 -32 -34 -35 -38 39 -40 42 -44 -49 -50 0
g -20